benchmarks/bfuzz0/59692170017331146271308858362730910575.smt2
(set-logic QF_FP)
(declare-const x0 (_ FloatingPoint 8 24))
(declare-const x1 (_ FloatingPoint 8 24))
(declare-const x2 (_ FloatingPoint 8 24))
(assert (fp.leq (fp.div RNE x0 x0) (fp.neg x0)))
(check-sat)
