db/data/59692170017331146271308858362730910575.z3.out
sat
-------------------
13.777280509
